c leafs=56, vars=14, seed=1, tickle=None
p cnf 647 1732                                                                
e 15 16 17 18 19 20 21 22 23 24 25 26 27 28 29 30 31 32 33 34 35 36 37 38 39 40 41 42 43 44 45 46 47 48 49 50 51 52 53 54 55 56 57 58 59 60 61 62 63 64 65 66 67 68 69 70  0
a 1 2 3 4 5 6 7 8 9 10 11 12 13 14  0
e 71 72 73 74 75 76 77 78 79 80 81 82 83 84 85 86 87 88 89 90 91 92 93 94 95 96 97 98 99 100 101 102 103 104 105 106 107 108 109 110 111 112 113 114 115 116 117 118 119 120 121 122 123 124 125 126 127 128 129 130 131 132 133 134 135 136 137 138 139 140 141 142 143 144 145 146 147 148 149 150 151 152 153 154 155 156 157 158 159 160 161 162 163 164 165 166 167 168 169 170 171 172 173 174 175 176 177 178 179 180 181 182 183 184 185 186 187 188 189 190 191 192 193 194 195 196 197 198 199 200 201 202 203 204 205 206 207 208 209 210 211 212 213 214 215 216 217 218 219 220 221 222 223 224 225 226 227 228 229 230 231 232 233 234 235 236 237 238 239 240 241 242 243 244 245 246 247 248 249 250 251 252 253 254 255 256 257 258 259 260 261 262 263 264 265 266 267 268 269 270 271 272 273 274 275 276 277 278 279 280 281 282 283 284 285 286 287 288 289 290 291 292 293 294 295 296 297 298 299 300 301 302 303 304 305 306 307 308 309 310 311 312 313 314 315 316 317 318 319 320 321 322 323 324 325 326 327 328 329 330 331 332 333 334 335 336 337 338 339 340 341 342 343 344 345 346 347 348 349 350 351 352 353 354 355 356 357 358 359 360 361 362 363 364 365 366 367 368 369 370 371 372 373 374 375 376 377 378 379 380 381 382 383 384 385 386 387 388 389 390 391 392 393 394 395 396 397 398 399 400 401 402 403 404 405 406 407 408 409 410 411 412 413 414 415 416 417 418 419 420 421 422 423 424 425 426 427 428 429 430 431 432 433 434 435 436 437 438 439 440 441 442 443 444 445 446 447 448 449 450 451 452 453 454 455 456 457 458 459 460 461 462 463 464 465 466 467 468 469 470 471 472 473 474 475 476 477 478 479 480 481 482 483 484 485 486 487 488 489 490 491 492 493 494 495 496 497 498 499 500 501 502 503 504 505 506 507 508 509 510 511 512 513 514 515 516 517 518 519 520 521 522 523 524 525 526 527 528 529 530 531 532 533 534 535 536 537 538 539 540 541 542 543 544 545 546 547 548 549 550 551 552 553 554 555 556 557 558 559 560 561 562 563 564 565 566 567 568 569 570 571 572 573 574 575 576 577 578 579 580 581 582 583 584 585 586 587 588 589 590 591 592 593 594 595 596 597 598 599 600 601 602 603 604 605 606 607 608 609 610 611 612 613 614 615 616 617 618 619 620 621 622 623 624 625 626 627 628 629 630 631 632 633 634 635 636 637 638 639 640 641 642 643 644 645 646 647  0
647  0
-71 -13 -1  0
71 13  0
71 1  0
-72 -13 1  0
72 13  0
72 -1  0
73 7 -5  0
-73 -7  0
-73 5  0
74 5 -7  0
-74 -5  0
-74 7  0
75 -4 -5  0
-75 4  0
-75 5  0
76 5 4  0
-76 -5  0
-76 -4  0
-77 -11 6  0
77 11  0
77 -6  0
-78 -6 11  0
78 6  0
78 -11  0
-79 -14 11  0
79 14  0
79 -11  0
-80 -11 14  0
80 11  0
80 -14  0
-81 -2 6  0
81 2  0
81 -6  0
-82 -6 2  0
82 6  0
82 -2  0
83 7 -6  0
-83 -7  0
-83 6  0
84 -6 -7  0
-84 6  0
-84 7  0
85 12 -9  0
-85 -12  0
-85 9  0
86 9 -12  0
-86 -9  0
-86 12  0
-87 -11 -8  0
87 11  0
87 8  0
-88 -8 11  0
88 8  0
88 -11  0
-89 -13 9  0
89 13  0
89 -9  0
-90 -9 13  0
90 9  0
90 -13  0
91 -4 -10  0
-91 4  0
-91 10  0
92 4 -10  0
-92 -4  0
-92 10  0
93 14 -13  0
-93 -14  0
-93 13  0
94 13 -14  0
-94 -13  0
-94 14  0
95 6 -5  0
-95 -6  0
-95 5  0
96 5 -6  0
-96 -5  0
-96 6  0
97 7 -9  0
-97 -7  0
-97 9  0
98 9 -7  0
-98 -9  0
-98 7  0
-99 -63 -10  0
99 63  0
99 10  0
-100 6 63  0
100 -6  0
100 -63  0
-101 -11 62  0
101 11  0
101 -62  0
-102 -62 6  0
102 62  0
102 -6  0
103 -4 -61  0
-103 4  0
-103 61  0
104 61 9  0
-104 -61  0
-104 -9  0
105 2 -60  0
-105 -2  0
-105 60  0
106 60 -12  0
-106 -60  0
-106 12  0
107 2 -58  0
-107 -2  0
-107 58  0
108 58 13  0
-108 -58  0
-108 -13  0
109 59 3  0
-109 -59  0
-109 -3  0
110 -7 -59  0
-110 7  0
-110 59  0
111 -6 -57  0
-111 6  0
-111 57  0
112 57 -3  0
-112 -57  0
-112 3  0
-113 -64 -3  0
113 64  0
113 3  0
-114 -8 64  0
114 8  0
114 -64  0
-115 -66 -11  0
115 66  0
115 11  0
-116 7 66  0
116 -7  0
116 -66  0
-117 7 65  0
117 -7  0
117 -65  0
-118 -65 13  0
118 65  0
118 -13  0
-119 12 69  0
119 -12  0
119 -69  0
-120 -69 -5  0
120 69  0
120 5  0
-121 10 70  0
121 -10  0
121 -70  0
-122 -70 5  0
122 70  0
122 -5  0
-123 -3 68  0
123 3  0
123 -68  0
-124 -68 1  0
124 68  0
124 -1  0
-125 -14 67  0
125 14  0
125 -67  0
-126 -67 -5  0
126 67  0
126 5  0
127 46 8  0
-127 -46  0
-127 -8  0
128 -2 -46  0
-128 2  0
-128 46  0
129 45 1  0
-129 -45  0
-129 -1  0
130 6 -45  0
-130 -6  0
-130 45  0
131 -1 -44  0
-131 1  0
-131 44  0
132 44 -13  0
-132 -44  0
-132 13  0
133 43 3  0
-133 -43  0
-133 -3  0
134 -8 -43  0
-134 8  0
-134 43  0
-135 -47 -7  0
135 47  0
135 7  0
-136 -14 47  0
136 14  0
136 -47  0
-137 -48 13  0
137 48  0
137 -13  0
-138 -11 48  0
138 11  0
138 -48  0
-139 -49 -8  0
139 49  0
139 8  0
-140 4 49  0
140 -4  0
140 -49  0
141 56 -4  0
-141 -56  0
-141 4  0
142 3 -56  0
-142 -3  0
-142 56  0
143 -5 -55  0
-143 5  0
-143 55  0
144 55 -14  0
-144 -55  0
-144 14  0
145 -1 -53  0
-145 1  0
-145 53  0
146 53 14  0
-146 -53  0
-146 -14  0
147 2 -54  0
-147 -2  0
-147 54  0
148 54 8  0
-148 -54  0
-148 -8  0
-149 -51 1  0
149 51  0
149 -1  0
-150 -11 51  0
150 11  0
150 -51  0
-151 -52 -14  0
151 52  0
151 14  0
-152 -6 52  0
152 6  0
152 -52  0
153 7 -50  0
-153 -7  0
-153 50  0
154 50 2  0
-154 -50  0
-154 -2  0
-155 -6 19  0
155 6  0
155 -19  0
-156 -19 -9  0
156 19  0
156 9  0
-157 -18 7  0
157 18  0
157 -7  0
-158 3 18  0
158 -3  0
158 -18  0
159 21 -11  0
-159 -21  0
-159 11  0
160 3 -21  0
-160 -3  0
-160 21  0
161 2 -20  0
-161 -2  0
-161 20  0
162 20 8  0
-162 -20  0
-162 -8  0
163 17 -8  0
-163 -17  0
-163 8  0
164 -10 -17  0
-164 10  0
-164 17  0
-165 -9 15  0
165 9  0
165 -15  0
-166 -15 -5  0
166 15  0
166 5  0
-167 -7 16  0
167 7  0
167 -16  0
-168 -16 -4  0
168 16  0
168 4  0
-169 -26 6  0
169 26  0
169 -6  0
-170 -4 26  0
170 4  0
170 -26  0
-171 -27 -5  0
171 27  0
171 5  0
-172 -3 27  0
172 3  0
172 -27  0
173 28 -12  0
-173 -28  0
-173 12  0
174 1 -28  0
-174 -1  0
-174 28  0
-175 -25 13  0
175 25  0
175 -13  0
-176 3 25  0
176 -3  0
176 -25  0
-177 -12 24  0
177 12  0
177 -24  0
-178 -24 14  0
178 24  0
178 -14  0
179 22 4  0
-179 -22  0
-179 -4  0
180 -5 -22  0
-180 5  0
-180 22  0
181 -7 -23  0
-181 7  0
-181 23  0
182 23 11  0
-182 -23  0
-182 -11  0
183 31 6  0
-183 -31  0
-183 -6  0
184 -11 -31  0
-184 11  0
-184 31  0
185 12 -32  0
-185 -12  0
-185 32  0
186 32 7  0
-186 -32  0
-186 -7  0
-187 -30 8  0
187 30  0
187 -8  0
-188 -13 30  0
188 13  0
188 -30  0
-189 -29 -9  0
189 29  0
189 9  0
-190 14 29  0
190 -14  0
190 -29  0
-191 -11 34  0
191 11  0
191 -34  0
-192 -34 14  0
192 34  0
192 -14  0
-193 -5 35  0
193 5  0
193 -35  0
-194 -35 12  0
194 35  0
194 -12  0
-195 -33 -5  0
195 33  0
195 5  0
-196 3 33  0
196 -3  0
196 -33  0
-197 9 40  0
197 -9  0
197 -40  0
-198 -40 1  0
198 40  0
198 -1  0
-199 -12 39  0
199 12  0
199 -39  0
-200 -39 -3  0
200 39  0
200 3  0
201 -7 -42  0
-201 7  0
-201 42  0
202 42 -6  0
-202 -42  0
-202 6  0
203 41 -5  0
-203 -41  0
-203 5  0
204 11 -41  0
-204 -11  0
-204 41  0
205 36 13  0
-205 -36  0
-205 -13  0
206 4 -36  0
-206 -4  0
-206 36  0
-207 -38 1  0
207 38  0
207 -1  0
-208 6 38  0
208 -6  0
208 -38  0
-209 -37 -11  0
209 37  0
209 11  0
-210 8 37  0
210 -8  0
210 -37  0
-211 11 14  0
211 -11  0
211 -14  0
-212 -14 -11  0
212 14  0
212 11  0
-213 6 11  0
213 -6  0
213 -11  0
-214 -11 -6  0
214 11  0
214 6  0
-215 -7 -5  0
215 7  0
215 5  0
-216 5 7  0
216 -5  0
216 -7  0
217 8 -71  0
-217 -8  0
-217 71  0
218 -8 -72  0
-218 8  0
-218 72  0
-219 73 74  0
219 -73  0
219 -74  0
-220 75 76  0
220 -75  0
220 -76  0
221 -77 -78  0
-221 77  0
-221 78  0
222 -79 -80  0
-222 79  0
-222 80  0
223 -81 -82  0
-223 81  0
-223 82  0
224 -2 -83  0
-224 2  0
-224 83  0
225 2 -84  0
-225 -2  0
-225 84  0
-226 85 86  0
226 -85  0
226 -86  0
227 13 -87  0
-227 -13  0
-227 87  0
228 -13 -88  0
-228 13  0
-228 88  0
229 -89 -90  0
-229 89  0
-229 90  0
230 -5 -91  0
-230 5  0
-230 91  0
231 5 -92  0
-231 -5  0
-231 92  0
-232 93 94  0
232 -93  0
232 -94  0
-233 95 96  0
233 -95  0
233 -96  0
-234 97 98  0
234 -97  0
234 -98  0
235 -99 -100  0
-235 99  0
-235 100  0
236 -101 -102  0
-236 101  0
-236 102  0
-237 103 104  0
237 -103  0
237 -104  0
-238 105 106  0
238 -105  0
238 -106  0
-239 107 108  0
239 -107  0
239 -108  0
-240 109 110  0
240 -109  0
240 -110  0
-241 111 112  0
241 -111  0
241 -112  0
242 -113 -114  0
-242 113  0
-242 114  0
243 -115 -116  0
-243 115  0
-243 116  0
244 -117 -118  0
-244 117  0
-244 118  0
245 -119 -120  0
-245 119  0
-245 120  0
246 -121 -122  0
-246 121  0
-246 122  0
247 -123 -124  0
-247 123  0
-247 124  0
248 -125 -126  0
-248 125  0
-248 126  0
-249 127 128  0
249 -127  0
249 -128  0
-250 129 130  0
250 -129  0
250 -130  0
-251 131 132  0
251 -131  0
251 -132  0
-252 133 134  0
252 -133  0
252 -134  0
253 -135 -136  0
-253 135  0
-253 136  0
254 -137 -138  0
-254 137  0
-254 138  0
255 -139 -140  0
-255 139  0
-255 140  0
-256 141 142  0
256 -141  0
256 -142  0
-257 143 144  0
257 -143  0
257 -144  0
-258 145 146  0
258 -145  0
258 -146  0
-259 147 148  0
259 -147  0
259 -148  0
260 -149 -150  0
-260 149  0
-260 150  0
261 -151 -152  0
-261 151  0
-261 152  0
-262 153 154  0
262 -153  0
262 -154  0
263 -155 -156  0
-263 155  0
-263 156  0
264 -157 -158  0
-264 157  0
-264 158  0
-265 159 160  0
265 -159  0
265 -160  0
-266 161 162  0
266 -161  0
266 -162  0
-267 163 164  0
267 -163  0
267 -164  0
268 -165 -166  0
-268 165  0
-268 166  0
269 -167 -168  0
-269 167  0
-269 168  0
270 -169 -170  0
-270 169  0
-270 170  0
271 -171 -172  0
-271 171  0
-271 172  0
-272 173 174  0
272 -173  0
272 -174  0
273 -175 -176  0
-273 175  0
-273 176  0
274 -177 -178  0
-274 177  0
-274 178  0
-275 179 180  0
275 -179  0
275 -180  0
-276 181 182  0
276 -181  0
276 -182  0
-277 183 184  0
277 -183  0
277 -184  0
-278 185 186  0
278 -185  0
278 -186  0
279 -187 -188  0
-279 187  0
-279 188  0
280 -189 -190  0
-280 189  0
-280 190  0
281 -191 -192  0
-281 191  0
-281 192  0
282 -193 -194  0
-282 193  0
-282 194  0
283 -195 -196  0
-283 195  0
-283 196  0
284 -197 -198  0
-284 197  0
-284 198  0
285 -199 -200  0
-285 199  0
-285 200  0
-286 201 202  0
286 -201  0
286 -202  0
-287 203 204  0
287 -203  0
287 -204  0
-288 205 206  0
288 -205  0
288 -206  0
289 -207 -208  0
-289 207  0
-289 208  0
290 -209 -210  0
-290 209  0
-290 210  0
291 -211 -212  0
-291 211  0
-291 212  0
292 -213 -214  0
-292 213  0
-292 214  0
293 -215 -216  0
-293 215  0
-293 216  0
-294 217 218  0
294 -217  0
294 -218  0
-295 -1 220  0
295 1  0
295 -220  0
-296 1 220  0
296 -1  0
296 -220  0
-297 8 222  0
297 -8  0
297 -222  0
298 -13 -223  0
-298 13  0
-298 223  0
299 13 -223  0
-299 -13  0
-299 223  0
-300 224 225  0
300 -224  0
300 -225  0
301 11 -226  0
-301 -11  0
-301 226  0
302 -11 -226  0
-302 11  0
-302 226  0
-303 227 228  0
303 -227  0
303 -228  0
304 6 -229  0
-304 -6  0
-304 229  0
305 -6 -229  0
-305 6  0
-305 229  0
-306 230 231  0
306 -230  0
306 -231  0
307 -11 -232  0
-307 11  0
-307 232  0
308 11 -232  0
-308 -11  0
-308 232  0
-309 -1 233  0
309 1  0
309 -233  0
310 -235 -236  0
-310 235  0
-310 236  0
311 235 236  0
-311 -235  0
-311 -236  0
312 -237 -238  0
-312 237  0
-312 238  0
313 237 238  0
-313 -237  0
-313 -238  0
314 -239 -240  0
-314 239  0
-314 240  0
315 240 239  0
-315 -240  0
-315 -239  0
-316 243 244  0
316 -243  0
316 -244  0
-317 -244 -243  0
317 244  0
317 243  0
-318 245 246  0
318 -245  0
318 -246  0
-319 -245 -246  0
319 245  0
319 246  0
-320 247 248  0
320 -247  0
320 -248  0
-321 -248 -247  0
321 248  0
321 247  0
-322 249 250  0
322 -249  0
322 -250  0
-323 -249 -250  0
323 249  0
323 250  0
-324 251 252  0
324 -251  0
324 -252  0
-325 -251 -252  0
325 251  0
325 252  0
-326 253 254  0
326 -253  0
326 -254  0
-327 -254 -253  0
327 254  0
327 253  0
328 -256 -257  0
-328 256  0
-328 257  0
329 256 257  0
-329 -256  0
-329 -257  0
330 -258 -259  0
-330 258  0
-330 259  0
331 258 259  0
-331 -258  0
-331 -259  0
332 -260 -261  0
-332 260  0
-332 261  0
333 261 260  0
-333 -261  0
-333 -260  0
334 -263 -264  0
-334 263  0
-334 264  0
335 264 263  0
-335 -264  0
-335 -263  0
336 -265 -266  0
-336 265  0
-336 266  0
337 266 265  0
-337 -266  0
-337 -265  0
338 -268 -269  0
-338 268  0
-338 269  0
339 268 269  0
-339 -268  0
-339 -269  0
340 -270 -271  0
-340 270  0
-340 271  0
341 271 270  0
-341 -271  0
-341 -270  0
342 -273 -274  0
-342 273  0
-342 274  0
343 274 273  0
-343 -274  0
-343 -273  0
344 -275 -276  0
-344 275  0
-344 276  0
345 276 275  0
-345 -276  0
-345 -275  0
-346 277 278  0
346 -277  0
346 -278  0
-347 -278 -277  0
347 278  0
347 277  0
-348 279 280  0
348 -279  0
348 -280  0
-349 -280 -279  0
349 280  0
349 279  0
-350 281 282  0
350 -281  0
350 -282  0
-351 -282 -281  0
351 282  0
351 281  0
352 -284 -285  0
-352 284  0
-352 285  0
353 285 284  0
-353 -285  0
-353 -284  0
354 -286 -287  0
-354 286  0
-354 287  0
355 286 287  0
-355 -286  0
-355 -287  0
356 -289 -290  0
-356 289  0
-356 290  0
357 290 289  0
-357 -290  0
-357 -289  0
358 8 -291  0
-358 -8  0
-358 291  0
359 -8 -295  0
-359 8  0
-359 295  0
360 8 -296  0
-360 -8  0
-360 296  0
-361 -3 298  0
361 3  0
361 -298  0
-362 3 299  0
362 -3  0
362 -299  0
363 10 -301  0
-363 -10  0
-363 301  0
364 -10 -302  0
-364 10  0
-364 302  0
-365 7 304  0
365 -7  0
365 -304  0
-366 -7 305  0
366 7  0
366 -305  0
367 4 -307  0
-367 -4  0
-367 307  0
368 -4 -308  0
-368 4  0
-368 308  0
-369 310 311  0
369 -310  0
369 -311  0
-370 312 313  0
370 -312  0
370 -313  0
-371 314 315  0
371 -314  0
371 -315  0
372 -316 -317  0
-372 316  0
-372 317  0
373 -318 -319  0
-373 318  0
-373 319  0
374 -320 -321  0
-374 320  0
-374 321  0
375 -322 -323  0
-375 322  0
-375 323  0
376 -324 -325  0
-376 324  0
-376 325  0
377 -326 -327  0
-377 326  0
-377 327  0
-378 328 329  0
378 -328  0
378 -329  0
-379 330 331  0
379 -330  0
379 -331  0
-380 332 333  0
380 -332  0
380 -333  0
-381 334 335  0
381 -334  0
381 -335  0
-382 336 337  0
382 -336  0
382 -337  0
-383 338 339  0
383 -338  0
383 -339  0
-384 340 341  0
384 -340  0
384 -341  0
-385 342 343  0
385 -342  0
385 -343  0
-386 344 345  0
386 -344  0
386 -345  0
387 -346 -347  0
-387 346  0
-387 347  0
388 -348 -349  0
-388 348  0
-388 349  0
389 -350 -351  0
-389 350  0
-389 351  0
-390 352 353  0
390 -352  0
390 -353  0
-391 354 355  0
391 -354  0
391 -355  0
-392 356 357  0
392 -356  0
392 -357  0
-393 359 360  0
393 -359  0
393 -360  0
394 -361 -362  0
-394 361  0
-394 362  0
-395 363 364  0
395 -363  0
395 -364  0
396 -365 -366  0
-396 365  0
-396 366  0
-397 367 368  0
397 -367  0
397 -368  0
398 -369 -370  0
-398 369  0
-398 370  0
399 -371 -241  0
-399 371  0
-399 241  0
-400 242 372  0
400 -242  0
400 -372  0
-401 373 374  0
401 -373  0
401 -374  0
402 -375 -376  0
-402 375  0
-402 376  0
403 -377 -255  0
-403 377  0
-403 255  0
-404 378 379  0
404 -378  0
404 -379  0
-405 380 262  0
405 -380  0
405 -262  0
406 -381 -382  0
-406 381  0
-406 382  0
407 -267 -383  0
-407 267  0
-407 383  0
-408 384 272  0
408 -384  0
408 -272  0
-409 385 386  0
409 -385  0
409 -386  0
-410 387 388  0
410 -387  0
410 -388  0
-411 389 283  0
411 -389  0
411 -283  0
-412 390 391  0
412 -390  0
412 -391  0
-413 288 392  0
413 -288  0
413 -392  0
-414 297 394  0
414 -297  0
414 -394  0
-415 -394 -297  0
415 394  0
415 297  0
-416 300 395  0
416 -300  0
416 -395  0
-417 -395 -300  0
417 395  0
417 300  0
418 -397 -309  0
-418 397  0
-418 309  0
419 397 309  0
-419 -397  0
-419 -309  0
-420 398 399  0
420 -398  0
420 -399  0
-421 -399 -398  0
421 399  0
421 398  0
-422 400 401  0
422 -400  0
422 -401  0
-423 -401 -400  0
423 401  0
423 400  0
-424 402 403  0
424 -402  0
424 -403  0
-425 -402 -403  0
425 402  0
425 403  0
-426 404 405  0
426 -404  0
426 -405  0
-427 -404 -405  0
427 404  0
427 405  0
-428 406 407  0
428 -406  0
428 -407  0
-429 -407 -406  0
429 407  0
429 406  0
-430 408 409  0
430 -408  0
430 -409  0
-431 -408 -409  0
431 408  0
431 409  0
-432 410 411  0
432 -410  0
432 -411  0
-433 -411 -410  0
433 411  0
433 410  0
-434 412 413  0
434 -412  0
434 -413  0
-435 -413 -412  0
435 413  0
435 412  0
-436 358 394  0
436 -358  0
436 -394  0
-437 -394 -358  0
437 394  0
437 358  0
438 -414 -415  0
-438 414  0
-438 415  0
439 -416 -417  0
-439 416  0
-439 417  0
-440 418 419  0
440 -418  0
440 -419  0
441 -420 -421  0
-441 420  0
-441 421  0
442 -422 -423  0
-442 422  0
-442 423  0
443 -424 -425  0
-443 424  0
-443 425  0
444 -426 -427  0
-444 426  0
-444 427  0
445 -428 -429  0
-445 428  0
-445 429  0
446 -430 -431  0
-446 430  0
-446 431  0
447 -432 -433  0
-447 432  0
-447 433  0
448 -434 -435  0
-448 434  0
-448 435  0
449 -436 -437  0
-449 436  0
-449 437  0
-450 7 438  0
450 -7  0
450 -438  0
-451 438 -221  0
451 -438  0
451 221  0
-452 -7 438  0
452 7  0
452 -438  0
-453 10 439  0
453 -10  0
453 -439  0
-454 -10 439  0
454 10  0
454 -439  0
-455 14 439  0
455 -14  0
455 -439  0
-456 -14 439  0
456 14  0
456 -439  0
457 11 -440  0
-457 -11  0
-457 440  0
458 -11 -440  0
-458 11  0
-458 440  0
459 -9 -440  0
-459 9  0
-459 440  0
460 9 -440  0
-460 -9  0
-460 440  0
-461 441 442  0
461 -441  0
461 -442  0
462 -443 -444  0
-462 443  0
-462 444  0
463 -445 -446  0
-463 445  0
-463 446  0
-464 447 448  0
464 -447  0
464 -448  0
465 7 -449  0
-465 -7  0
-465 449  0
-466 449 -221  0
466 -449  0
466 221  0
467 -7 -449  0
-467 7  0
-467 449  0
-468 221 450  0
468 -221  0
468 -450  0
-469 221 452  0
469 -221  0
469 -452  0
-470 12 453  0
470 -12  0
470 -453  0
-471 -12 454  0
471 12  0
471 -454  0
-472 -12 453  0
472 12  0
472 -453  0
-473 12 454  0
473 -12  0
473 -454  0
474 2 -457  0
-474 -2  0
-474 457  0
475 -2 -458  0
-475 2  0
-475 458  0
476 2 -458  0
-476 -2  0
-476 458  0
477 -2 -457  0
-477 2  0
-477 457  0
-478 461 462  0
478 -461  0
478 -462  0
-479 -461 -462  0
479 461  0
479 462  0
-480 463 464  0
480 -463  0
480 -464  0
-481 -463 -464  0
481 463  0
481 464  0
-482 221 465  0
482 -221  0
482 -465  0
483 -467 -292  0
-483 467  0
-483 292  0
484 -468 -451  0
-484 468  0
-484 451  0
-485 -393 469  0
485 393  0
485 -469  0
486 -470 -471  0
-486 470  0
-486 471  0
487 -472 -473  0
-487 472  0
-487 473  0
-488 474 475  0
488 -474  0
488 -475  0
-489 476 477  0
489 -476  0
489 -477  0
490 -478 -479  0
-490 478  0
-490 479  0
491 -480 -481  0
-491 480  0
-491 481  0
492 -482 -466  0
-492 482  0
-492 466  0
-493 -393 483  0
493 393  0
493 -483  0
-494 393 484  0
494 -393  0
494 -484  0
-495 -14 486  0
495 14  0
495 -486  0
-496 14 486  0
496 -14  0
496 -486  0
-497 -14 487  0
497 14  0
497 -487  0
-498 14 487  0
498 -14  0
498 -487  0
499 9 -488  0
-499 -9  0
-499 488  0
500 -9 -488  0
-500 9  0
-500 488  0
501 -489 -234  0
-501 489  0
-501 234  0
502 -490 -491  0
-502 490  0
-502 491  0
-503 393 492  0
503 -393  0
503 -492  0
504 -494 -485  0
-504 494  0
-504 485  0
-505 1 495  0
505 -1  0
505 -495  0
-506 -1 496  0
506 1  0
506 -496  0
507 -497 -455  0
-507 497  0
-507 455  0
508 -498 -456  0
-508 498  0
-508 456  0
-509 499 459  0
509 -499  0
509 -459  0
-510 460 500  0
510 -460  0
510 -500  0
511 306 -501  0
-511 -306  0
-511 501  0
512 -503 -493  0
-512 503  0
-512 493  0
513 -505 -506  0
-513 505  0
-513 506  0
-514 1 507  0
514 -1  0
514 -507  0
-515 -1 508  0
515 1  0
515 -508  0
516 -7 -509  0
-516 7  0
-516 509  0
517 7 -510  0
-517 -7  0
-517 510  0
-518 513 303  0
518 -513  0
518 -303  0
519 -514 -515  0
-519 514  0
-519 515  0
-520 516 517  0
520 -516  0
520 -517  0
-521 519 -303  0
521 -519  0
521 303  0
522 -306 -520  0
-522 306  0
-522 520  0
523 -518 -521  0
-523 518  0
-523 521  0
-524 522 511  0
524 -522  0
524 -511  0
-525 504 523  0
525 -504  0
525 -523  0
-526 -523 -504  0
526 523  0
526 504  0
-527 523 512  0
527 -523  0
527 -512  0
-528 -523 -512  0
528 523  0
528 512  0
529 -525 -526  0
-529 525  0
-529 526  0
530 -527 -528  0
-530 527  0
-530 528  0
-531 219 529  0
531 -219  0
531 -529  0
-532 -12 529  0
532 12  0
532 -529  0
-533 12 529  0
533 -12  0
533 -529  0
-534 -3 529  0
534 3  0
534 -529  0
-535 9 529  0
535 -9  0
535 -529  0
-536 -9 529  0
536 9  0
536 -529  0
537 -12 -530  0
-537 12  0
-537 530  0
538 12 -530  0
-538 -12  0
-538 530  0
-539 -3 530  0
539 3  0
539 -530  0
-540 -9 530  0
540 9  0
540 -530  0
-541 9 530  0
541 -9  0
541 -530  0
-542 530 219  0
542 -530  0
542 -219  0
-543 -14 532  0
543 14  0
543 -532  0
-544 14 533  0
544 -14  0
544 -533  0
-545 14 532  0
545 -14  0
545 -532  0
-546 -14 533  0
546 14  0
546 -533  0
-547 14 537  0
547 -14  0
547 -537  0
-548 -14 538  0
548 14  0
548 -538  0
-549 -14 537  0
549 14  0
549 -537  0
-550 14 538  0
550 -14  0
550 -538  0
551 -543 -544  0
-551 543  0
-551 544  0
552 -545 -546  0
-552 545  0
-552 546  0
553 -547 -548  0
-553 547  0
-553 548  0
554 -549 -550  0
-554 549  0
-554 550  0
-555 3 551  0
555 -3  0
555 -551  0
-556 3 552  0
556 -3  0
556 -552  0
-557 3 553  0
557 -3  0
557 -553  0
558 3 -554  0
-558 -3  0
-558 554  0
-559 555 396  0
559 -555  0
559 -396  0
560 -534 -556  0
-560 534  0
-560 556  0
-561 -396 555  0
561 396  0
561 -555  0
562 -557 -539  0
-562 557  0
-562 539  0
-563 -396 558  0
563 396  0
563 -558  0
-564 558 396  0
564 -558  0
564 -396  0
-565 -396 560  0
565 396  0
565 -560  0
-566 560 396  0
566 -560  0
566 -396  0
-567 562 396  0
567 -562  0
567 -396  0
-568 -396 562  0
568 396  0
568 -562  0
569 -559 -565  0
-569 559  0
-569 565  0
570 -561 -566  0
-570 561  0
-570 566  0
571 -567 -563  0
-571 567  0
-571 563  0
572 -568 -564  0
-572 568  0
-572 564  0
-573 -9 569  0
573 9  0
573 -569  0
-574 9 569  0
574 -9  0
574 -569  0
-575 569 219  0
575 -569  0
575 -219  0
-576 570 219  0
576 -570  0
576 -219  0
-577 -9 570  0
577 9  0
577 -570  0
-578 9 570  0
578 -9  0
578 -570  0
579 9 -571  0
-579 -9  0
-579 571  0
580 -9 -571  0
-580 9  0
-580 571  0
-581 219 571  0
581 -219  0
581 -571  0
-582 572 219  0
582 -572  0
582 -219  0
-583 9 572  0
583 -9  0
583 -572  0
-584 -9 572  0
584 9  0
584 -572  0
585 -573 -535  0
-585 573  0
-585 535  0
586 -536 -574  0
-586 536  0
-586 574  0
-587 3 577  0
587 -3  0
587 -577  0
-588 -3 578  0
588 3  0
588 -578  0
-589 -3 577  0
589 3  0
589 -577  0
-590 3 578  0
590 -3  0
590 -578  0
-591 -3 579  0
591 3  0
591 -579  0
-592 3 580  0
592 -3  0
592 -580  0
-593 -3 580  0
593 3  0
593 -580  0
-594 3 579  0
594 -3  0
594 -579  0
595 -583 -540  0
-595 583  0
-595 540  0
596 -541 -584  0
-596 541  0
-596 584  0
-597 -3 585  0
597 3  0
597 -585  0
-598 3 586  0
598 -3  0
598 -586  0
-599 3 585  0
599 -3  0
599 -585  0
-600 -3 586  0
600 3  0
600 -586  0
601 -587 -588  0
-601 587  0
-601 588  0
602 -589 -590  0
-602 589  0
-602 590  0
603 -591 -592  0
-603 591  0
-603 592  0
604 -593 -594  0
-604 593  0
-604 594  0
-605 -3 595  0
605 3  0
605 -595  0
-606 3 596  0
606 -3  0
606 -596  0
-607 -3 596  0
607 3  0
607 -596  0
-608 3 595  0
608 -3  0
608 -595  0
609 -597 -598  0
-609 597  0
-609 598  0
610 -599 -600  0
-610 599  0
-610 600  0
-611 -219 601  0
611 219  0
611 -601  0
-612 -219 602  0
612 219  0
612 -602  0
-613 -219 603  0
613 219  0
613 -603  0
614 -604 -293  0
-614 604  0
-614 293  0
615 -605 -606  0
-615 605  0
-615 606  0
616 -607 -608  0
-616 607  0
-616 608  0
-617 -219 609  0
617 219  0
617 -609  0
-618 -219 610  0
618 219  0
618 -610  0
619 -576 -611  0
-619 576  0
-619 611  0
-620 612 294  0
620 -612  0
620 -294  0
621 -613 -581  0
-621 613  0
-621 581  0
-622 614 294  0
622 -614  0
622 -294  0
-623 -219 615  0
623 219  0
623 -615  0
-624 -219 616  0
624 219  0
624 -616  0
625 -531 -617  0
-625 531  0
-625 617  0
626 -618 -575  0
-626 618  0
-626 575  0
-627 -294 619  0
627 294  0
627 -619  0
-628 -294 621  0
628 294  0
628 -621  0
629 -582 -623  0
-629 582  0
-629 623  0
630 -542 -624  0
-630 542  0
-630 624  0
-631 294 625  0
631 -294  0
631 -625  0
-632 -294 626  0
632 294  0
632 -626  0
633 -627 -620  0
-633 627  0
-633 620  0
634 -628 -622  0
-634 628  0
-634 622  0
-635 -294 629  0
635 294  0
635 -629  0
-636 294 630  0
636 -294  0
636 -630  0
637 -631 -632  0
-637 631  0
-637 632  0
-638 -524 633  0
638 524  0
638 -633  0
-639 -524 634  0
639 524  0
639 -634  0
640 -635 -636  0
-640 635  0
-640 636  0
-641 637 524  0
641 -637  0
641 -524  0
-642 640 524  0
642 -640  0
642 -524  0
643 -641 -638  0
-643 641  0
-643 638  0
644 -639 -642  0
-644 639  0
-644 642  0
-645 643 502  0
645 -643  0
645 -502  0
-646 -502 644  0
646 502  0
646 -644  0
647 -645 -646  0
-647 645  0
-647 646  0
